c Reduced graph for p20 generated by Cyril Grelier
p edge 37 142
e 1 6
e 1 8
e 1 10
e 1 16
e 2 7
e 2 10
e 2 12
e 2 14
e 2 20
e 2 21
e 2 25
e 2 34
e 2 36
e 3 9
e 3 11
e 3 12
e 3 17
e 3 19
e 3 22
e 3 29
e 3 31
e 3 37
e 4 5
e 4 13
e 4 15
e 4 18
e 4 23
e 4 26
e 4 31
e 4 36
e 5 9
e 5 14
e 5 15
e 5 18
e 5 23
e 5 35
e 6 13
e 6 16
e 6 20
e 6 29
e 7 10
e 7 11
e 7 20
e 7 25
e 7 26
e 7 27
e 7 32
e 7 35
e 8 10
e 8 15
e 8 22
e 8 28
e 8 34
e 9 14
e 9 17
e 9 22
e 9 31
e 9 35
e 9 37
e 10 20
e 10 25
e 11 12
e 11 19
e 11 26
e 11 27
e 11 29
e 11 32
e 11 35
e 12 14
e 12 19
e 12 21
e 12 29
e 12 34
e 12 36
e 13 20
e 13 26
e 13 29
e 13 31
e 13 36
e 14 21
e 14 34
e 14 35
e 14 36
e 15 18
e 15 22
e 15 23
e 15 28
e 15 34
e 16 19
e 16 24
e 16 28
e 17 22
e 17 23
e 17 24
e 17 31
e 17 32
e 17 33
e 17 37
e 18 21
e 18 23
e 18 27
e 18 30
e 18 37
e 19 24
e 19 28
e 19 29
e 20 25
e 20 29
e 21 27
e 21 30
e 21 34
e 21 36
e 21 37
e 22 28
e 22 31
e 22 34
e 22 37
e 23 24
e 23 32
e 23 33
e 24 28
e 24 32
e 24 33
e 25 30
e 25 33
e 26 27
e 26 31
e 26 32
e 26 35
e 26 36
e 27 30
e 27 32
e 27 35
e 27 37
e 28 34
e 30 33
e 30 37
e 31 36
e 31 37
e 32 33
e 32 35
e 34 36
